(set-logic QF_S)
(declare-fun var0 () String)
(declare-fun var1 () String)
(declare-fun var2 () String)
(declare-fun var3 () String)
(declare-fun var4 () String)
(declare-fun var5 () String)
(declare-fun var6 () String)
(declare-fun var7 () String)
(declare-fun var8 () String)
(declare-fun var9 () String)
(declare-fun var10 () String)
(declare-fun var11 () String)
(declare-fun var12 () String)
(declare-fun var13 () String)
(declare-fun var14 () String)
(declare-fun var15 () String)
(declare-fun var16 () String)
(declare-fun var17 () String)
(declare-fun var18 () String)
(declare-fun var19 () String)
(declare-fun var20 () String)
(declare-fun var21 () String)
(declare-fun var22 () String)
(declare-fun var23 () String)
(declare-fun var24 () String)
(declare-fun var25 () String)
(declare-fun var26 () String)
(declare-fun var27 () String)
(declare-fun var28 () String)
(declare-fun var29 () String)
(declare-fun var30 () String)
(declare-fun var31 () String)
(declare-fun var32 () String)
(declare-fun var33 () String)
(declare-fun var34 () String)
(declare-fun var35 () String)
(declare-fun var36 () String)
(declare-fun var37 () String)
(declare-fun var38 () String)
(declare-fun var39 () String)
(declare-fun var40 () String)
(declare-fun var41 () String)
(declare-fun var42 () String)
(declare-fun var43 () String)
(declare-fun var44 () String)
(declare-fun var45 () String)
(declare-fun var46 () String)
(declare-fun var47 () String)
(declare-fun var48 () String)
(declare-fun var49 () String)
(declare-fun var50 () String)
(declare-fun var51 () String)
(declare-fun var52 () String)
(declare-fun var53 () String)
(declare-fun var54 () String)
(declare-fun var55 () String)
(declare-fun var56 () String)
(declare-fun var57 () String)
(declare-fun var58 () String)
(declare-fun var59 () String)
(declare-fun var60 () String)
(assert (= var0 (str.++ var1 var2)))
(assert (= var2 (str.++ var3 var4)))
(assert (= var4 (str.++ var5 var6)))
(assert (= var6 (str.++ var7 var8)))
(assert (= var8 (str.++ var9 var10)))
(assert (= var10 (str.++ var11 var12)))
(assert (= var12 (str.++ var13 var14)))
(assert (= var14 (str.++ var15 var16)))
(assert (= var16 (str.++ var17 var18)))
(assert (= var18 (str.++ var19 var20)))
(assert (= var20 (str.++ var21 var22)))
(assert (= var22 (str.++ var23 var24)))
(assert (= var24 (str.++ var25 var26)))
(assert (= var26 (str.++ var27 var28)))
(assert (= var28 (str.++ var29 var30)))
(assert (= var30 (str.++ var31 var32)))
(assert (= var32 (str.++ var33 var34)))
(assert (= var34 (str.++ var35 var36)))
(assert (= var36 (str.++ var37 var38)))
(assert (= var38 (str.++ var39 var40)))
(assert (= var40 (str.++ var41 var42)))
(assert (= var42 (str.++ var43 var44)))
(assert (= var44 (str.++ var45 var46)))
(assert (= var46 (str.++ var47 var48)))
(assert (= var48 (str.++ var49 var50)))
(assert (= var50 (str.++ var51 var52)))
(assert (= var52 (str.++ var53 var54)))
(assert (= var54 (str.++ var55 var56)))
(assert (= var56 (str.++ var57 var58)))
(assert (= var58 (str.++ var59 var60)))
(assert (= var0 "solution"))
(assert (= "8" (str.at var31 175)))
(assert (= "," (str.at var52 197)))
(assert (= "q" (str.at var39 899)))
(assert (= "W" (str.at var12 240)))
(assert (= "y" (str.at var54 471)))
(assert (= "#" (str.at var43 731)))
(assert (= "*" (str.at var16 618)))
(assert (= "j" (str.at var52 38)))
(assert (= "l" (str.at var44 396)))
(assert (= "g" (str.at var43 626)))
(assert (= "<" (str.at var49 13)))
(assert (= "0" (str.at var22 506)))
(assert (= "s" (str.at var20 400)))
(assert (= "y" (str.at var4 888)))
(assert (= "Y" (str.at var32 266)))
(assert (= "G" (str.at var24 111)))
(assert (= "=" (str.at var21 283)))
(assert (= "i" (str.at var38 774)))
(assert (= "-" (str.at var49 293)))
(assert (= "^" (str.at var4 177)))
(assert (= "^" (str.at var55 759)))
(assert (= ">" (str.at var38 67)))
(assert (= "8" (str.at var4 709)))
(assert (= "h" (str.at var30 529)))
(assert (= "6" (str.at var36 641)))
(assert (= "S" (str.at var9 453)))
(assert (= "G" (str.at var60 728)))
(assert (= "*" (str.at var47 347)))
(assert (= "<" (str.at var58 222)))
(assert (= "{" (str.at var11 60)))
(assert (= "`" (str.at var9 364)))
(assert (= "t" (str.at var26 423)))
(assert (= "Y" (str.at var45 757)))
(assert (= "1" (str.at var45 971)))
(assert (= "r" (str.at var35 126)))
(assert (= "q" (str.at var21 295)))
(assert (= "r" (str.at var22 181)))
(assert (= "v" (str.at var21 242)))
(assert (= "4" (str.at var13 534)))
(assert (= "v" (str.at var26 146)))
(assert (= "%" (str.at var38 388)))
(assert (= "o" (str.at var18 10)))
(assert (= "N" (str.at var8 701)))
(assert (= "C" (str.at var41 154)))
(assert (= "+" (str.at var6 397)))
(assert (= "\\" (str.at var16 994)))
(assert (= "(" (str.at var43 497)))
(assert (= ")" (str.at var50 121)))
(assert (= "<" (str.at var5 933)))
(assert (= "K" (str.at var1 558)))
(assert (= "X" (str.at var39 29)))
(assert (= "3" (str.at var47 887)))
(assert (= "," (str.at var10 279)))
(assert (= "D" (str.at var55 371)))
(assert (= "2" (str.at var5 612)))
(assert (= "/" (str.at var40 108)))
(assert (= "p" (str.at var25 258)))
(assert (= "*" (str.at var52 973)))
(assert (= "s" (str.at var17 12)))
(assert (= "(" (str.at var34 546)))
(assert (= "m" (str.at var48 777)))
(assert (= "x" (str.at var37 716)))
(assert (= "Z" (str.at var43 117)))
(assert (= "%" (str.at var4 651)))
(assert (= """" (str.at var20 262)))
(assert (= "h" (str.at var9 505)))
(assert (= "s" (str.at var37 227)))
(assert (= """" (str.at var57 791)))
(assert (= "$" (str.at var34 667)))
(assert (= "@" (str.at var26 786)))
(assert (= "3" (str.at var11 172)))
(assert (= "O" (str.at var53 154)))
(assert (= "b" (str.at var29 875)))
(assert (= "%" (str.at var33 204)))
(assert (= "^" (str.at var27 383)))
(assert (= "^" (str.at var16 897)))
(assert (= "R" (str.at var54 537)))
(assert (= "Z" (str.at var59 620)))
(assert (= "C" (str.at var39 250)))
(assert (= "~" (str.at var6 449)))
(assert (= "X" (str.at var5 23)))
(assert (= "W" (str.at var37 735)))
(assert (= "P" (str.at var59 144)))
(assert (= "L" (str.at var28 968)))
(assert (= "?" (str.at var8 152)))
(assert (= "3" (str.at var6 554)))
(assert (= "x" (str.at var13 19)))
(assert (= "<" (str.at var36 471)))
(assert (= "|" (str.at var12 870)))
(assert (= "H" (str.at var54 254)))
(assert (= "X" (str.at var51 228)))
(assert (= "J" (str.at var22 569)))
(assert (= "z" (str.at var47 893)))
(assert (= "S" (str.at var59 348)))
(assert (= "J" (str.at var50 597)))
(assert (= "," (str.at var11 216)))
(assert (= "f" (str.at var14 380)))
(assert (= "\\" (str.at var57 725)))
(assert (= ":" (str.at var22 988)))
(assert (= "a" (str.at var15 323)))
(assert (= "V" (str.at var6 956)))
(assert (= "&" (str.at var33 259)))
(assert (= "v" (str.at var17 152)))
(assert (= "w" (str.at var34 853)))
(assert (= "r" (str.at var32 763)))
(assert (= "m" (str.at var5 399)))
(assert (= "/" (str.at var34 80)))
(assert (= ">" (str.at var36 331)))
(assert (= "3" (str.at var11 18)))
(assert (= "'" (str.at var24 867)))
(assert (= "<" (str.at var27 896)))
(assert (= "Z" (str.at var8 114)))
(assert (= "@" (str.at var60 64)))
(assert (= "}" (str.at var46 252)))
(assert (= ":" (str.at var12 191)))
(assert (= "i" (str.at var37 31)))
(assert (= "B" (str.at var6 394)))
(assert (= "'" (str.at var37 588)))
(assert (= "V" (str.at var46 162)))
(assert (= "+" (str.at var31 432)))
(assert (= "z" (str.at var51 440)))
(assert (= "#" (str.at var18 695)))
(assert (= "n" (str.at var35 780)))
(assert (= "O" (str.at var12 766)))
(assert (= "&" (str.at var55 963)))
(assert (= "w" (str.at var14 770)))
(assert (= "K" (str.at var58 584)))
(assert (= "`" (str.at var40 406)))
(assert (= "e" (str.at var49 268)))
(assert (= "t" (str.at var10 747)))
(assert (= "c" (str.at var40 856)))
(assert (= "x" (str.at var19 756)))
(assert (= "<" (str.at var41 883)))
(assert (= "!" (str.at var16 554)))
(assert (= "g" (str.at var51 137)))
(assert (= "f" (str.at var32 228)))
(assert (= "Q" (str.at var17 471)))
(assert (= "N" (str.at var51 150)))
(assert (= "8" (str.at var24 794)))
(assert (= "y" (str.at var5 138)))
(assert (= "(" (str.at var31 622)))
(assert (= "&" (str.at var22 598)))
(assert (= "g" (str.at var11 581)))
(assert (= "7" (str.at var24 784)))
(assert (= "0" (str.at var37 93)))
(assert (= "g" (str.at var26 470)))
(assert (= "U" (str.at var6 746)))
(assert (= ";" (str.at var14 810)))
(assert (= "b" (str.at var46 619)))
(assert (= "K" (str.at var18 17)))
(assert (= "S" (str.at var3 228)))
(assert (= "A" (str.at var12 854)))
(assert (= "`" (str.at var22 347)))
(assert (= "N" (str.at var12 548)))
(assert (= "^" (str.at var18 282)))
(assert (= "k" (str.at var16 357)))
(assert (= "y" (str.at var53 613)))
(assert (= "^" (str.at var53 676)))
(assert (= "z" (str.at var35 172)))
(assert (= "y" (str.at var59 200)))
(assert (= "P" (str.at var35 843)))
(assert (= "5" (str.at var12 664)))
(assert (= ";" (str.at var16 894)))
(assert (= "O" (str.at var39 137)))
(assert (= "." (str.at var35 386)))
(assert (= "1" (str.at var38 799)))
(assert (= "$" (str.at var28 467)))
(assert (= "G" (str.at var14 935)))
(assert (= "A" (str.at var21 983)))
(assert (= "4" (str.at var56 281)))
(assert (= "@" (str.at var21 618)))
(assert (= "f" (str.at var10 1000)))
(assert (= "^" (str.at var15 242)))
(assert (= "]" (str.at var36 68)))
(assert (= "*" (str.at var31 623)))
(assert (= "f" (str.at var34 747)))
(assert (= "\\" (str.at var13 314)))
(assert (= "t" (str.at var35 454)))
(assert (= "u" (str.at var30 45)))
(assert (= "C" (str.at var19 123)))
(assert (= "z" (str.at var36 579)))
(assert (= ")" (str.at var9 907)))
(assert (= "@" (str.at var21 527)))
(assert (= "y" (str.at var12 835)))
(assert (= ">" (str.at var56 831)))
(assert (= "=" (str.at var52 307)))
(assert (= "A" (str.at var50 154)))
(assert (= "0" (str.at var35 295)))
(assert (= ";" (str.at var35 698)))
(assert (= "r" (str.at var56 769)))
(assert (= "s" (str.at var37 333)))
(assert (= "e" (str.at var49 649)))
(assert (= "*" (str.at var15 859)))
(assert (= "<" (str.at var22 667)))
(assert (= "v" (str.at var54 97)))
(assert (= "w" (str.at var36 671)))
(assert (= "@" (str.at var30 196)))
(assert (= "e" (str.at var54 552)))
(assert (= "w" (str.at var15 86)))
(assert (= "<" (str.at var47 199)))
(assert (= "`" (str.at var42 520)))
(assert (= "O" (str.at var40 302)))
(assert (= "9" (str.at var7 321)))
(assert (= "q" (str.at var6 825)))
(assert (= "`" (str.at var14 847)))
(assert (= "1" (str.at var40 16)))
(assert (= "z" (str.at var21 943)))
(assert (= "U" (str.at var33 91)))
(assert (= "7" (str.at var39 393)))
(assert (= "w" (str.at var33 691)))
(assert (= "/" (str.at var40 539)))
(assert (= "$" (str.at var3 803)))
(assert (= "n" (str.at var5 824)))
(assert (= "m" (str.at var6 350)))
(assert (= "a" (str.at var0 577)))
(assert (= "*" (str.at var9 52)))
(assert (= "+" (str.at var52 33)))
(assert (= "d" (str.at var32 7)))
(assert (= "l" (str.at var30 270)))
(assert (= "\\" (str.at var3 881)))
(assert (= "S" (str.at var59 907)))
(assert (= "D" (str.at var58 924)))
(assert (= "?" (str.at var8 162)))
(assert (= "P" (str.at var35 619)))
(assert (= "E" (str.at var22 844)))
(assert (= "Q" (str.at var33 576)))
(assert (= "r" (str.at var9 24)))
(assert (= "x" (str.at var24 86)))
(assert (= "s" (str.at var48 985)))
(assert (= "[" (str.at var44 823)))
(assert (= "J" (str.at var14 487)))
(assert (= "B" (str.at var32 953)))
(assert (= "N" (str.at var38 562)))
(assert (= "u" (str.at var58 948)))
(assert (= "J" (str.at var14 866)))
(assert (= "e" (str.at var22 336)))
(assert (= "^" (str.at var33 32)))
(assert (= "R" (str.at var39 757)))
(assert (= "\\" (str.at var23 893)))
(assert (= "l" (str.at var2 674)))
(assert (= "'" (str.at var32 831)))
(assert (= "^" (str.at var0 699)))
(assert (= "s" (str.at var41 579)))
(assert (= "l" (str.at var35 130)))
(assert (= "-" (str.at var28 794)))
(assert (= "%" (str.at var42 877)))
(assert (= "`" (str.at var54 46)))
(assert (= "W" (str.at var42 633)))
(assert (= "2" (str.at var16 936)))
(assert (= "m" (str.at var4 470)))
(assert (= "." (str.at var8 78)))
(assert (= "k" (str.at var51 790)))
(assert (= "1" (str.at var49 263)))
(assert (= "3" (str.at var21 725)))
(assert (= "0" (str.at var53 884)))
(assert (= "m" (str.at var48 227)))
(assert (= "g" (str.at var23 36)))
(assert (= "%" (str.at var10 502)))
(assert (= "6" (str.at var28 694)))
(assert (= "c" (str.at var36 543)))
(assert (= "g" (str.at var53 225)))
(assert (= "i" (str.at var30 517)))
(assert (= "v" (str.at var37 678)))
(assert (= "s" (str.at var35 312)))
(assert (= "^" (str.at var55 554)))
(assert (= "K" (str.at var40 694)))
(assert (= "\\" (str.at var23 397)))
(assert (= "Y" (str.at var56 510)))
(assert (= "C" (str.at var57 895)))
(assert (= "t" (str.at var8 377)))
(assert (= "[" (str.at var50 305)))
(assert (= "u" (str.at var44 384)))
(assert (= "C" (str.at var11 741)))
(assert (= ":" (str.at var3 538)))
(assert (= "w" (str.at var37 510)))
(assert (= "h" (str.at var51 618)))
(assert (= "{" (str.at var29 502)))
(assert (= "C" (str.at var8 229)))
(assert (= "^" (str.at var51 513)))
(assert (= "{" (str.at var58 87)))
(assert (= "s" (str.at var57 9)))
(assert (= ":" (str.at var53 645)))
(assert (= "s" (str.at var13 730)))
(assert (= "6" (str.at var4 710)))
(assert (= "H" (str.at var44 111)))
(assert (= "Y" (str.at var11 562)))
(assert (= "l" (str.at var57 212)))
(assert (= "?" (str.at var45 769)))
(assert (= "8" (str.at var0 407)))
(assert (= "<" (str.at var41 403)))
(assert (= "o" (str.at var54 956)))
(assert (= "l" (str.at var0 482)))
(assert (= "f" (str.at var3 370)))
(assert (= "-" (str.at var53 839)))
(assert (= "9" (str.at var10 688)))
(assert (= "S" (str.at var29 285)))
(assert (= "M" (str.at var0 774)))
(assert (= "O" (str.at var51 906)))
(assert (= "!" (str.at var29 166)))
(assert (= "]" (str.at var17 790)))
(assert (= "-" (str.at var23 22)))
(assert (= "%" (str.at var10 684)))
(assert (= "1" (str.at var25 13)))
(assert (= "T" (str.at var43 258)))
(assert (= "8" (str.at var3 944)))
(assert (= "\\" (str.at var21 21)))
(assert (= "=" (str.at var3 588)))
(assert (= "w" (str.at var29 470)))
(assert (= "V" (str.at var58 633)))
(assert (= "Q" (str.at var33 917)))
(assert (= "<" (str.at var6 926)))
(assert (= "S" (str.at var41 461)))
(assert (= ";" (str.at var18 801)))
(assert (= "\\" (str.at var18 837)))
(assert (= "i" (str.at var57 510)))
(assert (= "6" (str.at var14 120)))
(assert (= "f" (str.at var22 401)))
(assert (= "P" (str.at var6 146)))
(assert (= "0" (str.at var7 978)))
(assert (= ";" (str.at var32 42)))
(assert (= "}" (str.at var12 456)))
(assert (= "W" (str.at var48 745)))
(assert (= "y" (str.at var16 629)))
(assert (= "w" (str.at var1 235)))
(assert (= "<" (str.at var46 954)))
(assert (= "Z" (str.at var46 692)))
(assert (= "H" (str.at var8 170)))
(assert (= "b" (str.at var11 922)))
(assert (= "8" (str.at var11 533)))
(assert (= ")" (str.at var59 338)))
(assert (= "<" (str.at var32 450)))
(assert (= "G" (str.at var57 921)))
(assert (= """" (str.at var50 910)))
(assert (= "Y" (str.at var2 530)))
(assert (= "f" (str.at var35 310)))
(assert (= "?" (str.at var29 762)))
(assert (= "q" (str.at var11 265)))
(assert (= "(" (str.at var25 911)))
(assert (= "C" (str.at var19 462)))
(assert (= "-" (str.at var50 500)))
(assert (= "~" (str.at var11 217)))
(assert (= "@" (str.at var23 505)))
(assert (= "S" (str.at var28 301)))
(assert (= "j" (str.at var16 210)))
(assert (= "5" (str.at var41 920)))
(assert (= "F" (str.at var55 900)))
(assert (= "q" (str.at var39 673)))
(assert (= "2" (str.at var14 39)))
(assert (= "O" (str.at var34 930)))
(assert (= "O" (str.at var49 765)))
(assert (= "u" (str.at var24 315)))
(assert (= "F" (str.at var30 162)))
(assert (= "4" (str.at var56 486)))
(assert (= "@" (str.at var55 78)))
(assert (= "@" (str.at var46 403)))
(assert (= "0" (str.at var32 234)))
(assert (= "C" (str.at var50 558)))
(assert (= "o" (str.at var54 858)))
(assert (= "{" (str.at var40 696)))
(assert (= "O" (str.at var24 102)))
(assert (= "Q" (str.at var35 708)))
(assert (= "@" (str.at var15 743)))
(assert (= "2" (str.at var50 980)))
(assert (= "," (str.at var12 189)))
(assert (= "F" (str.at var6 981)))
(assert (= "N" (str.at var48 147)))
(assert (= "." (str.at var3 51)))
(assert (= "H" (str.at var35 796)))
(assert (= "{" (str.at var22 420)))
(assert (= "-" (str.at var51 795)))
(assert (= "X" (str.at var50 178)))
(assert (= "]" (str.at var31 916)))
(assert (= "I" (str.at var27 88)))
(assert (= "{" (str.at var24 524)))
(assert (= "2" (str.at var25 390)))
(assert (= "." (str.at var13 995)))
(assert (= "K" (str.at var44 588)))
(assert (= "Y" (str.at var44 692)))
(assert (= "G" (str.at var41 648)))
(assert (= "h" (str.at var29 608)))
(assert (= "B" (str.at var55 345)))
(assert (= "}" (str.at var37 20)))
(assert (= "M" (str.at var4 118)))
(assert (= "P" (str.at var56 704)))
(assert (= "h" (str.at var44 253)))
(assert (= "p" (str.at var14 823)))
(assert (= "I" (str.at var34 226)))
(assert (= "!" (str.at var22 744)))
(assert (= "/" (str.at var12 363)))
(assert (= "a" (str.at var47 161)))
(assert (= "}" (str.at var4 996)))
(assert (= "I" (str.at var22 8)))
(assert (= "z" (str.at var39 177)))
(assert (= "|" (str.at var10 119)))
(assert (= "S" (str.at var10 990)))
(assert (= "/" (str.at var44 866)))
(assert (= "q" (str.at var25 886)))
(assert (= "u" (str.at var13 389)))
(assert (= "N" (str.at var28 241)))
(assert (= "6" (str.at var55 51)))
(assert (= "9" (str.at var29 155)))
(assert (= "&" (str.at var28 588)))
(assert (= "K" (str.at var20 658)))
(assert (= "H" (str.at var38 637)))
(assert (= "y" (str.at var35 587)))
(assert (= "'" (str.at var20 66)))
(assert (= "r" (str.at var33 158)))
(assert (= "~" (str.at var44 743)))
(assert (= "s" (str.at var18 604)))
(assert (= "e" (str.at var18 696)))
(assert (= "F" (str.at var47 60)))
(assert (= "6" (str.at var19 64)))
(assert (= "V" (str.at var28 845)))
(assert (= "!" (str.at var48 904)))
(assert (= "i" (str.at var44 508)))
(assert (= "X" (str.at var45 909)))
(assert (= "@" (str.at var22 621)))
(assert (= "P" (str.at var29 132)))
(assert (= "E" (str.at var3 991)))
(assert (= "Y" (str.at var14 419)))
(assert (= "X" (str.at var22 899)))
(assert (= "&" (str.at var39 27)))
(assert (= "H" (str.at var51 850)))
(assert (= "&" (str.at var15 935)))
(assert (= "g" (str.at var0 127)))
(assert (= "+" (str.at var40 333)))
(assert (= "H" (str.at var33 9)))
(assert (= "}" (str.at var42 76)))
(assert (= "?" (str.at var42 342)))
(assert (= "$" (str.at var49 928)))
(assert (= "~" (str.at var34 43)))
(assert (= "+" (str.at var35 351)))
(assert (= "h" (str.at var34 185)))
(assert (= "+" (str.at var39 117)))
(assert (= "[" (str.at var29 674)))
(assert (= "5" (str.at var1 183)))
(assert (= "=" (str.at var26 487)))
(assert (= "2" (str.at var45 448)))
(assert (= "I" (str.at var42 583)))
(assert (= "*" (str.at var24 437)))
(assert (= "Y" (str.at var9 675)))
(assert (= "R" (str.at var27 93)))
(assert (= "." (str.at var23 842)))
(assert (= "^" (str.at var37 426)))
(assert (= "R" (str.at var32 218)))
(assert (= "H" (str.at var43 352)))
(assert (= ")" (str.at var55 420)))
(assert (= "u" (str.at var21 774)))
(assert (= "h" (str.at var54 981)))
(assert (= "-" (str.at var13 562)))
(assert (= "C" (str.at var34 709)))
(assert (= "Y" (str.at var10 591)))
(assert (= "(" (str.at var26 947)))
(assert (= "4" (str.at var48 464)))
(assert (= "d" (str.at var7 374)))
(assert (= "]" (str.at var0 147)))
(assert (= "o" (str.at var55 347)))
(assert (= "Z" (str.at var54 683)))
(assert (= "V" (str.at var22 578)))
(assert (= "W" (str.at var51 743)))
(assert (= "9" (str.at var54 476)))
(assert (= "\\" (str.at var4 47)))
(assert (= "J" (str.at var51 545)))
(assert (= "}" (str.at var43 465)))
(assert (= "'" (str.at var20 984)))
(assert (= "J" (str.at var19 21)))
(assert (= "%" (str.at var17 160)))
(assert (= "L" (str.at var40 409)))
(assert (= "a" (str.at var47 416)))
(assert (= "v" (str.at var52 320)))
(assert (= "j" (str.at var33 109)))
(assert (= "B" (str.at var53 512)))
(assert (= "p" (str.at var43 971)))
(assert (= "d" (str.at var5 992)))
(assert (= "1" (str.at var13 788)))
(assert (= "G" (str.at var41 663)))
(assert (= "g" (str.at var55 408)))
(assert (= "T" (str.at var37 799)))
(assert (= "4" (str.at var25 394)))
(assert (= "c" (str.at var20 447)))
(assert (= "f" (str.at var26 115)))
(assert (= "P" (str.at var39 502)))
(assert (= "Z" (str.at var7 251)))
(assert (= "G" (str.at var32 692)))
(assert (= "C" (str.at var20 485)))
(assert (= "~" (str.at var6 665)))
(assert (= "B" (str.at var52 717)))
(assert (= "Q" (str.at var23 942)))
(assert (= "P" (str.at var54 30)))
(assert (= "y" (str.at var11 792)))
(assert (= "B" (str.at var23 422)))
(assert (= "{" (str.at var25 417)))
(assert (= "[" (str.at var34 93)))
(assert (= "k" (str.at var15 927)))
(assert (= "o" (str.at var37 518)))
(assert (= "V" (str.at var35 281)))
(assert (= "*" (str.at var38 192)))
(assert (= "a" (str.at var43 620)))
(assert (= "D" (str.at var22 871)))
(assert (= "{" (str.at var2 273)))
(assert (= "W" (str.at var12 879)))
(assert (= "k" (str.at var60 604)))
(assert (= "J" (str.at var5 231)))
(assert (= "a" (str.at var23 832)))
(assert (= "%" (str.at var14 998)))
(assert (= "`" (str.at var38 568)))
(assert (= "6" (str.at var11 86)))
(assert (= "=" (str.at var3 622)))
(assert (= "^" (str.at var60 30)))
(assert (= "7" (str.at var40 842)))
(assert (= "x" (str.at var42 944)))
(assert (= "<" (str.at var32 740)))
(assert (= "I" (str.at var38 668)))
(assert (= "j" (str.at var51 184)))
(assert (= "Y" (str.at var49 219)))
(assert (= "k" (str.at var59 674)))
(assert (= "%" (str.at var10 346)))
(assert (= "s" (str.at var11 128)))
(assert (= "I" (str.at var21 816)))
(assert (= "S" (str.at var20 654)))
(assert (= "3" (str.at var9 698)))
(assert (= "w" (str.at var50 867)))
(assert (= "#" (str.at var4 46)))
(assert (= "z" (str.at var38 722)))
(assert (= ")" (str.at var8 422)))
(assert (= ")" (str.at var51 16)))
(assert (= "4" (str.at var52 489)))
(assert (= "3" (str.at var5 863)))
(assert (= "&" (str.at var16 431)))
(assert (= "$" (str.at var20 42)))
(assert (= "}" (str.at var31 453)))
(assert (= "x" (str.at var1 699)))
(assert (= "v" (str.at var33 698)))
(assert (= "d" (str.at var58 113)))
(assert (= "l" (str.at var15 348)))
(assert (= "E" (str.at var48 580)))
(assert (= "e" (str.at var26 477)))
(assert (= "g" (str.at var43 200)))
(assert (= "~" (str.at var55 662)))
(assert (= "%" (str.at var37 659)))
(assert (= "@" (str.at var7 886)))
(assert (= ">" (str.at var34 878)))
(assert (= "U" (str.at var34 879)))
(assert (= "]" (str.at var15 535)))
(assert (= "|" (str.at var5 530)))
(assert (= "9" (str.at var18 881)))
(assert (= "n" (str.at var29 170)))
(assert (= "a" (str.at var45 30)))
(assert (= "K" (str.at var7 774)))
(assert (= "A" (str.at var22 983)))
(assert (= "'" (str.at var46 457)))
(assert (= "G" (str.at var35 967)))
(assert (= "$" (str.at var37 355)))
(assert (= "B" (str.at var48 786)))
(assert (= "k" (str.at var26 604)))
(assert (= "m" (str.at var6 671)))
(assert (= "K" (str.at var7 393)))
(assert (= "S" (str.at var49 383)))
(assert (= "%" (str.at var8 83)))
(assert (= "6" (str.at var2 892)))
(assert (= ">" (str.at var52 99)))
(assert (= "~" (str.at var16 764)))
(assert (= "k" (str.at var14 183)))
(assert (= "^" (str.at var30 329)))
(assert (= "N" (str.at var27 509)))
(assert (= "*" (str.at var53 947)))
(assert (= "w" (str.at var42 901)))
(assert (= "j" (str.at var49 172)))
(assert (= "6" (str.at var26 761)))
(assert (= "h" (str.at var34 583)))
(assert (= "=" (str.at var17 360)))
(assert (= "y" (str.at var30 173)))
(assert (= "]" (str.at var56 48)))
(assert (= "X" (str.at var38 104)))
(assert (= ";" (str.at var15 156)))
(assert (= "?" (str.at var14 185)))
(assert (= "2" (str.at var45 465)))
(assert (= "l" (str.at var33 926)))
(assert (= "U" (str.at var5 504)))
(assert (= "F" (str.at var41 254)))
(assert (= "T" (str.at var36 596)))
(assert (= "I" (str.at var21 884)))
(assert (= "1" (str.at var60 195)))
(assert (= "H" (str.at var2 603)))
(assert (= "<" (str.at var29 929)))
(assert (= "_" (str.at var53 836)))
(assert (= "Q" (str.at var46 896)))
(assert (= "(" (str.at var60 862)))
(assert (= "y" (str.at var14 664)))
(assert (= "r" (str.at var48 659)))
(assert (= ":" (str.at var20 198)))
(assert (= "_" (str.at var19 730)))
(assert (= "/" (str.at var13 498)))
(assert (= ":" (str.at var33 757)))
(assert (= "+" (str.at var5 883)))
(assert (= "D" (str.at var22 201)))
(assert (= "-" (str.at var59 450)))
(assert (= "R" (str.at var0 442)))
(assert (= "4" (str.at var21 151)))
(assert (= "4" (str.at var50 714)))
(assert (= "s" (str.at var55 838)))
(check-sat)
(get-model)